Jobs = 10;
Machines = 10;

ProcessingTimes = [|68, 69, 61, 44, 81, 39, 92, 16, 63, 20
                   |32, 90, 80, 11, 58, 75, 1, 4, 78, 5
                   |83, 24, 79, 82, 76, 68, 78, 51, 68, 94
                   |78, 78, 73, 80, 84, 48, 6, 41, 22, 34
                   |50, 20, 49, 7, 48, 61, 88, 65, 84, 60
                   |73, 54, 87, 35, 43, 22, 3, 78, 88, 46
                   |46, 90, 17, 22, 58, 57, 73, 99, 94, 39
                   |54, 13, 48, 63, 4, 53, 29, 40, 91, 22
                   |5, 29, 91, 16, 21, 96, 74, 34, 56, 61
                   |91, 72, 1, 4, 11, 72, 9, 55, 43, 1|];

ReleaseDates = [0, 132, 155, 23, 82, 39, 0, 149, 114, 0];

DueDates = [832, 750, -1, 688, 769, 909, 880, 803, -1, 645];

Weights = [1, 4, 1, 3, 2, 3, 5, 2, 4, 5];

